min: 8395 z_0 + 5390 z_1 + 10010 z_2 + 7866 z_3 + 2992 z_4 + 9653 z_5 + 3984 z_6 + 2882 z_7 + 6935 z_8 + 9370 z_9 + 6769 z_10 + 22 x_0_0 + 20 x_0_1 + 7 x_0_2 + 37 x_0_3 + 26 x_0_4 + 18 x_0_5 + 15 x_0_6 + 5 x_0_7 + 25 x_0_8 + 22 x_0_9 + 19 x_0_10 + 27 x_1_0 + 26 x_1_1 + 22 x_1_2 + 46 x_1_3 + 50 x_1_4 + 5 x_1_5 + 10 x_1_6 + 13 x_1_7 + 26 x_1_8 + 46 x_1_9 + 47 x_1_10 + 4 x_2_0 + 34 x_2_1 + 24 x_2_2 + 48 x_2_3 + 41 x_2_4 + 40 x_2_5 + 41 x_2_6 + 50 x_2_7 + 1 x_2_8 + 48 x_2_9 + 43 x_2_10 + 3 x_3_0 + 17 x_3_1 + 14 x_3_2 + 50 x_3_3 + 13 x_3_4 + 27 x_3_5 + 21 x_3_6 + 1 x_3_7 + 1 x_3_8 + 24 x_3_9 + 22 x_3_10 + 3 x_4_0 + 40 x_4_1 + 33 x_4_2 + 44 x_4_3 + 44 x_4_4 + 10 x_4_5 + 47 x_4_6 + 44 x_4_7 + 49 x_4_8 + 37 x_4_9 + 24 x_4_10 + 25 x_5_0 + 42 x_5_1 + 35 x_5_2 + 41 x_5_3 + 12 x_5_4 + 48 x_5_5 + 45 x_5_6 + 34 x_5_7 + 48 x_5_8 + 46 x_5_9 + 47 x_5_10 + 8 x_6_0 + 21 x_6_1 + 5 x_6_2 + 44 x_6_3 + 50 x_6_4 + 47 x_6_5 + 20 x_6_6 + 30 x_6_7 + 32 x_6_8 + 31 x_6_9 + 9 x_6_10 + 50 x_7_0 + 1 x_7_1 + 28 x_7_2 + 3 x_7_3 + 35 x_7_4 + 16 x_7_5 + 13 x_7_6 + 33 x_7_7 + 25 x_7_8 + 36 x_7_9 + 27 x_7_10 + 5 y_0_0 + 7 y_0_1 + 19 y_0_2 + 41 y_0_3 + 20 y_0_4 + 45 y_0_5 + 30 y_0_6 + 28 y_0_7 + 13 y_0_8 + 8 y_0_9 + 29 y_0_10 + 4 y_0_11 + 46 y_0_12 + 6 y_0_13 + 7 y_0_14 + 20 y_1_0 + 27 y_1_1 + 39 y_1_2 + 7 y_1_3 + 6 y_1_4 + 36 y_1_5 + 11 y_1_6 + 16 y_1_7 + 46 y_1_8 + 5 y_1_9 + 9 y_1_10 + 16 y_1_11 + 26 y_1_12 + 4 y_1_13 + 13 y_1_14 + 25 y_2_0 + 10 y_2_1 + 49 y_2_2 + 23 y_2_3 + 29 y_2_4 + 12 y_2_5 + 50 y_2_6 + 49 y_2_7 + 15 y_2_8 + 7 y_2_9 + 48 y_2_10 + 32 y_2_11 + 6 y_2_12 + 12 y_2_13 + 14 y_2_14 + 6 y_3_0 + 8 y_3_1 + 43 y_3_2 + 25 y_3_3 + 27 y_3_4 + 27 y_3_5 + 25 y_3_6 + 26 y_3_7 + 47 y_3_8 + 2 y_3_9 + 45 y_3_10 + 32 y_3_11 + 6 y_3_12 + 2 y_3_13 + 46 y_3_14 + 10 y_4_0 + 23 y_4_1 + 17 y_4_2 + 5 y_4_3 + 14 y_4_4 + 35 y_4_5 + 1 y_4_6 + 1 y_4_7 + 23 y_4_8 + 34 y_4_9 + 25 y_4_10 + 38 y_4_11 + 41 y_4_12 + 6 y_4_13 + 42 y_4_14 + 17 y_5_0 + 26 y_5_1 + 45 y_5_2 + 6 y_5_3 + 20 y_5_4 + 22 y_5_5 + 41 y_5_6 + 32 y_5_7 + 15 y_5_8 + 43 y_5_9 + 39 y_5_10 + 35 y_5_11 + 25 y_5_12 + 33 y_5_13 + 24 y_5_14 + 11 y_6_0 + 38 y_6_1 + 16 y_6_2 + 7 y_6_3 + 29 y_6_4 + 33 y_6_5 + 6 y_6_6 + 27 y_6_7 + 22 y_6_8 + 25 y_6_9 + 49 y_6_10 + 8 y_6_11 + 45 y_6_12 + 24 y_6_13 + 16 y_6_14 + 35 y_7_0 + 13 y_7_1 + 4 y_7_2 + 43 y_7_3 + 39 y_7_4 + 18 y_7_5 + 48 y_7_6 + 9 y_7_7 + 43 y_7_8 + 24 y_7_9 + 26 y_7_10 + 49 y_7_11 + 3 y_7_12 + 23 y_7_13 + 47 y_7_14 + 23 y_8_0 + 31 y_8_1 + 35 y_8_2 + 30 y_8_3 + 30 y_8_4 + 26 y_8_5 + 38 y_8_6 + 12 y_8_7 + 27 y_8_8 + 30 y_8_9 + 29 y_8_10 + 9 y_8_11 + 10 y_8_12 + 43 y_8_13 + 26 y_8_14 + 3 y_9_0 + 25 y_9_1 + 45 y_9_2 + 9 y_9_3 + 16 y_9_4 + 3 y_9_5 + 17 y_9_6 + 13 y_9_7 + 3 y_9_8 + 15 y_9_9 + 32 y_9_10 + 45 y_9_11 + 10 y_9_12 + 17 y_9_13 + 49 y_9_14 + 39 y_10_0 + 14 y_10_1 + 13 y_10_2 + 29 y_10_3 + 31 y_10_4 + 36 y_10_5 + 39 y_10_6 + 38 y_10_7 + 18 y_10_8 + 16 y_10_9 + 2 y_10_10 + 5 y_10_11 + 7 y_10_12 + 18 y_10_13 + 17 y_10_14;

x_0_0 + x_0_1 + x_0_2 + x_0_3 + x_0_4 + x_0_5 + x_0_6 + x_0_7 + x_0_8 + x_0_9 + x_0_10 <= 336;
x_1_0 + x_1_1 + x_1_2 + x_1_3 + x_1_4 + x_1_5 + x_1_6 + x_1_7 + x_1_8 + x_1_9 + x_1_10 <= 459;
x_2_0 + x_2_1 + x_2_2 + x_2_3 + x_2_4 + x_2_5 + x_2_6 + x_2_7 + x_2_8 + x_2_9 + x_2_10 <= 453;
x_3_0 + x_3_1 + x_3_2 + x_3_3 + x_3_4 + x_3_5 + x_3_6 + x_3_7 + x_3_8 + x_3_9 + x_3_10 <= 462;
x_4_0 + x_4_1 + x_4_2 + x_4_3 + x_4_4 + x_4_5 + x_4_6 + x_4_7 + x_4_8 + x_4_9 + x_4_10 <= 401;
x_5_0 + x_5_1 + x_5_2 + x_5_3 + x_5_4 + x_5_5 + x_5_6 + x_5_7 + x_5_8 + x_5_9 + x_5_10 <= 362;
x_6_0 + x_6_1 + x_6_2 + x_6_3 + x_6_4 + x_6_5 + x_6_6 + x_6_7 + x_6_8 + x_6_9 + x_6_10 <= 324;
x_7_0 + x_7_1 + x_7_2 + x_7_3 + x_7_4 + x_7_5 + x_7_6 + x_7_7 + x_7_8 + x_7_9 + x_7_10 <= 280;

x_0_0 + x_1_0 + x_2_0 + x_3_0 + x_4_0 + x_5_0 + x_6_0 + x_7_0 - y_0_0 - y_0_1 - y_0_2 - y_0_3 - y_0_4 - y_0_5 - y_0_6 - y_0_7 - y_0_8 - y_0_9 - y_0_10 - y_0_11 - y_0_12 - y_0_13 - y_0_14 = 0;
x_0_1 + x_1_1 + x_2_1 + x_3_1 + x_4_1 + x_5_1 + x_6_1 + x_7_1 - y_1_0 - y_1_1 - y_1_2 - y_1_3 - y_1_4 - y_1_5 - y_1_6 - y_1_7 - y_1_8 - y_1_9 - y_1_10 - y_1_11 - y_1_12 - y_1_13 - y_1_14 = 0;
x_0_2 + x_1_2 + x_2_2 + x_3_2 + x_4_2 + x_5_2 + x_6_2 + x_7_2 - y_2_0 - y_2_1 - y_2_2 - y_2_3 - y_2_4 - y_2_5 - y_2_6 - y_2_7 - y_2_8 - y_2_9 - y_2_10 - y_2_11 - y_2_12 - y_2_13 - y_2_14 = 0;
x_0_3 + x_1_3 + x_2_3 + x_3_3 + x_4_3 + x_5_3 + x_6_3 + x_7_3 - y_3_0 - y_3_1 - y_3_2 - y_3_3 - y_3_4 - y_3_5 - y_3_6 - y_3_7 - y_3_8 - y_3_9 - y_3_10 - y_3_11 - y_3_12 - y_3_13 - y_3_14 = 0;
x_0_4 + x_1_4 + x_2_4 + x_3_4 + x_4_4 + x_5_4 + x_6_4 + x_7_4 - y_4_0 - y_4_1 - y_4_2 - y_4_3 - y_4_4 - y_4_5 - y_4_6 - y_4_7 - y_4_8 - y_4_9 - y_4_10 - y_4_11 - y_4_12 - y_4_13 - y_4_14 = 0;
x_0_5 + x_1_5 + x_2_5 + x_3_5 + x_4_5 + x_5_5 + x_6_5 + x_7_5 - y_5_0 - y_5_1 - y_5_2 - y_5_3 - y_5_4 - y_5_5 - y_5_6 - y_5_7 - y_5_8 - y_5_9 - y_5_10 - y_5_11 - y_5_12 - y_5_13 - y_5_14 = 0;
x_0_6 + x_1_6 + x_2_6 + x_3_6 + x_4_6 + x_5_6 + x_6_6 + x_7_6 - y_6_0 - y_6_1 - y_6_2 - y_6_3 - y_6_4 - y_6_5 - y_6_6 - y_6_7 - y_6_8 - y_6_9 - y_6_10 - y_6_11 - y_6_12 - y_6_13 - y_6_14 = 0;
x_0_7 + x_1_7 + x_2_7 + x_3_7 + x_4_7 + x_5_7 + x_6_7 + x_7_7 - y_7_0 - y_7_1 - y_7_2 - y_7_3 - y_7_4 - y_7_5 - y_7_6 - y_7_7 - y_7_8 - y_7_9 - y_7_10 - y_7_11 - y_7_12 - y_7_13 - y_7_14 = 0;
x_0_8 + x_1_8 + x_2_8 + x_3_8 + x_4_8 + x_5_8 + x_6_8 + x_7_8 - y_8_0 - y_8_1 - y_8_2 - y_8_3 - y_8_4 - y_8_5 - y_8_6 - y_8_7 - y_8_8 - y_8_9 - y_8_10 - y_8_11 - y_8_12 - y_8_13 - y_8_14 = 0;
x_0_9 + x_1_9 + x_2_9 + x_3_9 + x_4_9 + x_5_9 + x_6_9 + x_7_9 - y_9_0 - y_9_1 - y_9_2 - y_9_3 - y_9_4 - y_9_5 - y_9_6 - y_9_7 - y_9_8 - y_9_9 - y_9_10 - y_9_11 - y_9_12 - y_9_13 - y_9_14 = 0;
x_0_10 + x_1_10 + x_2_10 + x_3_10 + x_4_10 + x_5_10 + x_6_10 + x_7_10 - y_10_0 - y_10_1 - y_10_2 - y_10_3 - y_10_4 - y_10_5 - y_10_6 - y_10_7 - y_10_8 - y_10_9 - y_10_10 - y_10_11 - y_10_12 - y_10_13 - y_10_14 = 0;

y_0_0 + y_0_1 + y_0_2 + y_0_3 + y_0_4 + y_0_5 + y_0_6 + y_0_7 + y_0_8 + y_0_9 + y_0_10 + y_0_11 + y_0_12 + y_0_13 + y_0_14 - 752 z_0 <= 0;
y_1_0 + y_1_1 + y_1_2 + y_1_3 + y_1_4 + y_1_5 + y_1_6 + y_1_7 + y_1_8 + y_1_9 + y_1_10 + y_1_11 + y_1_12 + y_1_13 + y_1_14 - 280 z_1 <= 0;
y_2_0 + y_2_1 + y_2_2 + y_2_3 + y_2_4 + y_2_5 + y_2_6 + y_2_7 + y_2_8 + y_2_9 + y_2_10 + y_2_11 + y_2_12 + y_2_13 + y_2_14 - 633 z_2 <= 0;
y_3_0 + y_3_1 + y_3_2 + y_3_3 + y_3_4 + y_3_5 + y_3_6 + y_3_7 + y_3_8 + y_3_9 + y_3_10 + y_3_11 + y_3_12 + y_3_13 + y_3_14 - 878 z_3 <= 0;
y_4_0 + y_4_1 + y_4_2 + y_4_3 + y_4_4 + y_4_5 + y_4_6 + y_4_7 + y_4_8 + y_4_9 + y_4_10 + y_4_11 + y_4_12 + y_4_13 + y_4_14 - 730 z_4 <= 0;
y_5_0 + y_5_1 + y_5_2 + y_5_3 + y_5_4 + y_5_5 + y_5_6 + y_5_7 + y_5_8 + y_5_9 + y_5_10 + y_5_11 + y_5_12 + y_5_13 + y_5_14 - 453 z_5 <= 0;
y_6_0 + y_6_1 + y_6_2 + y_6_3 + y_6_4 + y_6_5 + y_6_6 + y_6_7 + y_6_8 + y_6_9 + y_6_10 + y_6_11 + y_6_12 + y_6_13 + y_6_14 - 170 z_6 <= 0;
y_7_0 + y_7_1 + y_7_2 + y_7_3 + y_7_4 + y_7_5 + y_7_6 + y_7_7 + y_7_8 + y_7_9 + y_7_10 + y_7_11 + y_7_12 + y_7_13 + y_7_14 - 166 z_7 <= 0;
y_8_0 + y_8_1 + y_8_2 + y_8_3 + y_8_4 + y_8_5 + y_8_6 + y_8_7 + y_8_8 + y_8_9 + y_8_10 + y_8_11 + y_8_12 + y_8_13 + y_8_14 - 805 z_8 <= 0;
y_9_0 + y_9_1 + y_9_2 + y_9_3 + y_9_4 + y_9_5 + y_9_6 + y_9_7 + y_9_8 + y_9_9 + y_9_10 + y_9_11 + y_9_12 + y_9_13 + y_9_14 - 705 z_9 <= 0;
y_10_0 + y_10_1 + y_10_2 + y_10_3 + y_10_4 + y_10_5 + y_10_6 + y_10_7 + y_10_8 + y_10_9 + y_10_10 + y_10_11 + y_10_12 + y_10_13 + y_10_14 - 692 z_10 <= 0;

y_0_0 + y_1_0 + y_2_0 + y_3_0 + y_4_0 + y_5_0 + y_6_0 + y_7_0 + y_8_0 + y_9_0 + y_10_0 = 90;
y_0_1 + y_1_1 + y_2_1 + y_3_1 + y_4_1 + y_5_1 + y_6_1 + y_7_1 + y_8_1 + y_9_1 + y_10_1 = 193;
y_0_2 + y_1_2 + y_2_2 + y_3_2 + y_4_2 + y_5_2 + y_6_2 + y_7_2 + y_8_2 + y_9_2 + y_10_2 = 56;
y_0_3 + y_1_3 + y_2_3 + y_3_3 + y_4_3 + y_5_3 + y_6_3 + y_7_3 + y_8_3 + y_9_3 + y_10_3 = 193;
y_0_4 + y_1_4 + y_2_4 + y_3_4 + y_4_4 + y_5_4 + y_6_4 + y_7_4 + y_8_4 + y_9_4 + y_10_4 = 102;
y_0_5 + y_1_5 + y_2_5 + y_3_5 + y_4_5 + y_5_5 + y_6_5 + y_7_5 + y_8_5 + y_9_5 + y_10_5 = 134;
y_0_6 + y_1_6 + y_2_6 + y_3_6 + y_4_6 + y_5_6 + y_6_6 + y_7_6 + y_8_6 + y_9_6 + y_10_6 = 147;
y_0_7 + y_1_7 + y_2_7 + y_3_7 + y_4_7 + y_5_7 + y_6_7 + y_7_7 + y_8_7 + y_9_7 + y_10_7 = 102;
y_0_8 + y_1_8 + y_2_8 + y_3_8 + y_4_8 + y_5_8 + y_6_8 + y_7_8 + y_8_8 + y_9_8 + y_10_8 = 89;
y_0_9 + y_1_9 + y_2_9 + y_3_9 + y_4_9 + y_5_9 + y_6_9 + y_7_9 + y_8_9 + y_9_9 + y_10_9 = 124;
y_0_10 + y_1_10 + y_2_10 + y_3_10 + y_4_10 + y_5_10 + y_6_10 + y_7_10 + y_8_10 + y_9_10 + y_10_10 = 74;
y_0_11 + y_1_11 + y_2_11 + y_3_11 + y_4_11 + y_5_11 + y_6_11 + y_7_11 + y_8_11 + y_9_11 + y_10_11 = 129;
y_0_12 + y_1_12 + y_2_12 + y_3_12 + y_4_12 + y_5_12 + y_6_12 + y_7_12 + y_8_12 + y_9_12 + y_10_12 = 200;
y_0_13 + y_1_13 + y_2_13 + y_3_13 + y_4_13 + y_5_13 + y_6_13 + y_7_13 + y_8_13 + y_9_13 + y_10_13 = 169;
y_0_14 + y_1_14 + y_2_14 + y_3_14 + y_4_14 + y_5_14 + y_6_14 + y_7_14 + y_8_14 + y_9_14 + y_10_14 = 102;

z_0 + z_1 + z_2 + z_3 + z_4 + z_5 + z_6 + z_7 + z_8 + z_9 + z_10 <= 5;

bin z_0, z_1, z_2, z_3, z_4, z_5, z_6, z_7, z_8, z_9, z_10;
